
Gurobi 8.1.1 (win64, Python) logging started 04/04/19 21:07:13

Academic license - for non-commercial use only

Gurobi 8.1.0 (mac64, Python) logging started Fri Apr  5 09:40:13 2019

Academic license - for non-commercial use only
